&BANDS
  prefix = 'graphene',
  outdir = './tmp/',
  filband = 'graphene_band.dat'
/
