&DOS
  prefix = 'graphene',
  outdir = './tmp/',
  fildos = 'graphene_dos.dat',
  Emin = -10.0,
  Emax = 10.0,
  DeltaE = 0.01
/
