&CONTROL
  calculation = 'bands',
  prefix = 'graphene',
  outdir = './tmp/',
  pseudo_dir = './'
/

&SYSTEM
  ibrav = 4,
  celldm(1) = 4.654,
  celldm(3) = 10.0,
  nat = 2,
  ntyp = 1,
  ecutwfc = 40.0,
  ecutrho = 400.0,
  occupations = 'smearing',
  smearing = 'mv',
  degauss = 0.01
/

&ELECTRONS
  conv_thr = 1.0d-8
/

ATOMIC_SPECIES
  C 12.0107 C.pbe-n-kjpaw_psl.1.0.0.UPF

ATOMIC_POSITIONS alat
  C 0.000000 0.000000 0.000000
  C 0.000000 0.5773503 0.000000

K_POINTS crystal_b
4
  0.0000 0.0000 0.0000 20   ! Γ
  0.3333 0.3333 0.0000 20   ! K
  0.5000 0.0000 0.0000 20   ! M
  0.0000 0.0000 0.0000 20   ! Γ
